&CONTROL
calculation = 'scf' ,
restart_mode = 'from_scratch' ,
prefix = 'Si'
pseudo_dir = '/home/raul/Desktop/Siliceno/pseudo'
nstep = 300
	etot_conv_thr = 1.00000d-04
	forc_conv_thr = 1.00000d-04
	outdir = '/home/raul/Desktop/Siliceno/out/'
	tprnfor = .true.
	tstress = .true.
	verbosity = 'high'
 /
	
 &SYSTEM
 	degauss = 0.02
	ibrav = 0,
	nat = 2, ntyp = 1,
	ecutwfc = 300.0
   ecutrho = 450
	!occupations= 'smearing'
	!smearing='cold'
	nbnd=8
 /
 &ELECTRONS
    electron_maxstep = 100,
    conv_thr = 4.0d-9 ,
    mixing_beta = 0.4 ,
    mixing_mode = 'plain' ,
    diagonalization = 'david' ,       
 /

ATOMIC_SPECIES
    Si   28.0855  Si.pbe-nl-rrkjus_psl.1.0.0.UPF
ATOMIC_POSITIONS crystal 
Si             0.7500        0.7500        0.7500
Si             0.00        0.00        0.00
    
K_POINTS automatic 
 4 4 4 0 0 0
CELL_PARAMETERS angstrom
1.1162994276    3.1573715803   1.9334873250
1.1162994276    3.1573715803   -1.9334873250
-2.2325988551   3.1573715803    0.0000000000

